unsat
(:added-eqs                   2177239
 :arith-eq-adapter            3517
 :arith-bound-propagations-lp 117996
 :arith-conflicts             463
 :arith-diseq                 142010
 :arith-fixed-eqs             172387
 :arith-lower                 115840
 :arith-make-feasible         59231
 :arith-max-columns           1255
 :arith-max-rows              710
 :arith-offset-eqs            56841
 :arith-upper                 210351
 :binary-propagations         10359863
 :conflicts                   23601
 :decisions                   1316275
 :del-clause                  33107
 :elim-unconstrained          4
 :max-memory                  53.88
 :memory                      35.95
 :minimized-lits              282095
 :mk-bool-var                 21235
 :mk-clause                   34086
 :mk-clause-binary            57003
 :num-allocs                  678496446
 :num-checks                  1
 :propagations                13736687
 :restarts                    136
 :rlimit-count                40446547
 :time                        35.38
 :total-time                  35.65)
